NAME : P-n19-k2
COMMENT : (Augerat et al, No of trucks: 2, Optimal value: 212)
TYPE : CVRP
DIMENSION : 19
EDGE_WEIGHT_TYPE : EUC_2D
CAPACITY : 160
NODE_COORD_SECTION
1 37 52
2 49 43
3 52 64
4 31 62
5 52 33
6 42 41
7 52 41
8 57 58
9 62 42
10 42 57
11 27 68
12 43 67
13 58 27
14 37 69
15 61 33
16 62 63
17 63 69
18 45 35
DEMAND_SECTION
1 19
2 30
3 16
4 23
5 11
6 31
7 15
8 28
9 14
10 8
11 7
12 14
13 19
14 11
15 26
16 17
17 6
18 15
DEPOT_SECTION
 1
 -1
EOF
